solution status: optimal solution found
objective value:                     205759.119822802
d11(0,0)                                            1 	(obj:0)
d11(1,1)                                            1 	(obj:0)
d11(1,2)                                            1 	(obj:0)
d11(3,7)                                            1 	(obj:0)
d11(3,9)                                            1 	(obj:0)
d11(3,11)                                           1 	(obj:0)
d11(3,13)                                           1 	(obj:0)
d11(4,15)                                           1 	(obj:0)
d11(4,16)                                           1 	(obj:0)
d11(4,17)                                           1 	(obj:0)
d11(4,19)                                           1 	(obj:0)
d11(4,20)                                           1 	(obj:0)
d11(4,21)                                           1 	(obj:0)
d11(4,22)                                           1 	(obj:0)
d11(4,23)                                           1 	(obj:0)
d11(4,24)                                           1 	(obj:0)
d11(4,25)                                           1 	(obj:0)
d11(4,26)                                           1 	(obj:0)
d11(4,27)                                           1 	(obj:0)
d11(4,28)                                           1 	(obj:0)
d11(4,29)                                           1 	(obj:0)
d11(4,30)                                           1 	(obj:0)
d11(5,31)                                           1 	(obj:0)
d11(5,33)                                           1 	(obj:0)
d11(5,34)                                           1 	(obj:0)
d11(5,35)                                           1 	(obj:0)
d11(5,36)                                           1 	(obj:0)
d11(5,37)                                           1 	(obj:0)
d11(5,38)                                           1 	(obj:0)
d11(5,39)                                           1 	(obj:0)
d11(5,40)                                           1 	(obj:0)
d11(5,41)                                           1 	(obj:0)
d11(5,42)                                           1 	(obj:0)
d11(5,43)                                           1 	(obj:0)
d11(5,44)                                           1 	(obj:0)
d11(5,45)                                           1 	(obj:0)
d11(5,46)                                           1 	(obj:0)
d11(5,47)                                           1 	(obj:0)
d11(5,48)                                           1 	(obj:0)
d11(5,49)                                           1 	(obj:0)
d11(5,50)                           0.999999999999995 	(obj:0)
d11(5,51)                                           1 	(obj:0)
d11(5,52)                                           1 	(obj:0)
d11(5,53)                                           1 	(obj:0)
d11(5,54)                                           1 	(obj:0)
d11(5,55)                                           1 	(obj:0)
d11(5,56)                                           1 	(obj:0)
d11(5,57)                                           1 	(obj:0)
d11(5,58)                                           1 	(obj:0)
d11(5,59)                                           1 	(obj:0)
d11(5,60)                                           1 	(obj:0)
d11(5,61)                                           1 	(obj:0)
d11(5,62)                                           1 	(obj:0)
d11(6,63)                                           1 	(obj:0)
d11(6,67)                                           1 	(obj:0)
d11(6,69)                                           1 	(obj:0)
d11(6,71)                                           1 	(obj:0)
d11(6,73)                                           1 	(obj:0)
d11(6,75)                                           1 	(obj:0)
d11(6,79)                                           1 	(obj:0)
d11(6,81)                                           1 	(obj:0)
d11(6,83)                                           1 	(obj:0)
d11(6,85)                                           1 	(obj:0)
d11(6,87)                                           1 	(obj:0)
d11(6,89)                                           1 	(obj:0)
d11(6,93)                                           1 	(obj:0)
d11(6,95)                                           1 	(obj:0)
d11(6,97)                                           1 	(obj:0)
d11(6,99)                                           1 	(obj:0)
d11(6,101)                           1.00000000000001 	(obj:0)
d11(6,103)                                          1 	(obj:0)
d11(6,105)                                          1 	(obj:0)
d11(6,107)                                          1 	(obj:0)
d11(6,109)                                          1 	(obj:0)
d11(6,111)                                          1 	(obj:0)
d11(6,113)                                          1 	(obj:0)
d11(6,115)                                          1 	(obj:0)
d11(6,117)                                          1 	(obj:0)
d11(6,119)                                          1 	(obj:0)
d11(6,121)                                          1 	(obj:0)
d11(6,125)                                          1 	(obj:0)
d12(2,3)                                            1 	(obj:0)
d12(2,4)                                            1 	(obj:0)
d12(2,5)                                            1 	(obj:0)
d12(2,6)                                            1 	(obj:0)
d12(6,64)                                           1 	(obj:0)
d12(6,66)                                           1 	(obj:0)
d12(6,68)                                           1 	(obj:0)
d12(6,70)                                           1 	(obj:0)
d12(6,72)                                           1 	(obj:0)
d12(6,74)                                           1 	(obj:0)
d12(6,76)                                           1 	(obj:0)
d12(6,78)                                           1 	(obj:0)
d12(6,80)                                           1 	(obj:0)
d12(6,82)                                           1 	(obj:0)
d12(6,84)                                           1 	(obj:0)
d12(6,86)                                           1 	(obj:0)
d12(6,88)                                           1 	(obj:0)
d12(6,90)                                           1 	(obj:0)
d12(6,92)                                           1 	(obj:0)
d12(6,94)                                           1 	(obj:0)
d12(6,96)                                           1 	(obj:0)
d12(6,98)                                           1 	(obj:0)
d12(6,100)                                          1 	(obj:0)
d12(6,102)                                          1 	(obj:0)
d12(6,104)                                          1 	(obj:0)
d12(6,106)                                          1 	(obj:0)
d12(6,108)                                          1 	(obj:0)
d12(6,110)                                          1 	(obj:0)
d12(6,112)                                          1 	(obj:0)
d12(6,114)                                          1 	(obj:0)
d12(6,116)                                          1 	(obj:0)
d12(6,118)                                          1 	(obj:0)
d12(6,120)                                          1 	(obj:0)
d12(6,122)                                          1 	(obj:0)
d12(6,124)                                          1 	(obj:0)
d12(6,126)                                          1 	(obj:0)
d21(4,15)                                           1 	(obj:0)
d21(5,31)                                           1 	(obj:0)
d21(5,32)                                           1 	(obj:0)
d21(5,33)                                           1 	(obj:0)
d21(5,34)                                           1 	(obj:0)
d21(5,35)                                           1 	(obj:0)
d21(5,36)                                           1 	(obj:0)
d21(5,37)                                           1 	(obj:0)
d21(5,39)                                           1 	(obj:0)
d21(5,40)                                           1 	(obj:0)
d21(5,41)                                           1 	(obj:0)
d21(5,43)                                           1 	(obj:0)
d21(5,47)                                           1 	(obj:0)
d21(5,48)                                           1 	(obj:0)
d21(5,49)                                           1 	(obj:0)
d21(5,51)                                           1 	(obj:0)
d21(5,55)                                           1 	(obj:0)
d21(6,63)                                           1 	(obj:0)
d21(6,64)                                           1 	(obj:0)
d21(6,65)                                           1 	(obj:0)
d21(6,66)                                           1 	(obj:0)
d21(6,67)                                           1 	(obj:0)
d21(6,68)                                           1 	(obj:0)
d21(6,69)                                           1 	(obj:0)
d21(6,70)                                           1 	(obj:0)
d21(6,71)                                           1 	(obj:0)
d21(6,72)                                           1 	(obj:0)
d21(6,73)                                           1 	(obj:0)
d21(6,74)                                           1 	(obj:0)
d21(6,75)                                           1 	(obj:0)
d21(6,76)                                           1 	(obj:0)
d21(6,79)                                           1 	(obj:0)
d21(6,80)                                           1 	(obj:0)
d21(6,81)                                           1 	(obj:0)
d21(6,82)                                           1 	(obj:0)
d21(6,83)                                           1 	(obj:0)
d21(6,84)                                           1 	(obj:0)
d21(6,85)                                           1 	(obj:0)
d21(6,87)                                           1 	(obj:0)
d21(6,88)                                           1 	(obj:0)
d21(6,89)                                           1 	(obj:0)
d21(6,91)                                           1 	(obj:0)
d21(6,95)                                           1 	(obj:0)
d21(6,96)                                           1 	(obj:0)
d21(6,97)                                           1 	(obj:0)
d21(6,98)                                           1 	(obj:0)
d21(6,99)                                           1 	(obj:0)
d21(6,100)                                          1 	(obj:0)
d21(6,103)                                          1 	(obj:0)
d21(6,104)                                          1 	(obj:0)
d21(6,105)                                          1 	(obj:0)
d21(6,107)                                          1 	(obj:0)
d21(6,111)                                          1 	(obj:0)
d21(6,112)                                          1 	(obj:0)
d21(6,113)                                          1 	(obj:0)
d21(6,115)                                          1 	(obj:0)
d21(6,119)                                          1 	(obj:0)
y2(6,100)                            1385.48851144895 	(obj:0)
y2(6,102)                            1385.48851144895 	(obj:0)
y2(6,104)                            1385.48851144895 	(obj:0)
y2(6,106)                            1385.48851144895 	(obj:0)
y2(6,108)                            1385.48851144895 	(obj:0)
y2(6,110)                            1385.48851144895 	(obj:0)
y2(6,112)                            1385.48851144895 	(obj:0)
y2(6,114)                            1385.48851144895 	(obj:0)
y2(6,116)                            1385.48851144895 	(obj:0)
y2(6,118)                            1385.48851144895 	(obj:0)
y2(6,120)                            1385.48851144895 	(obj:0)
y2(6,122)                            1385.48851144895 	(obj:0)
y2(6,124)                            1385.48851144895 	(obj:0)
y2(6,126)                            1385.48851144895 	(obj:0)
STE(1,1)                             9933.75010111118 	(obj:0)
STE(0,0)                                        12600 	(obj:0)
STE(1,2)                                        11592 	(obj:0)
STE(2,3)                                        10332 	(obj:0)
STE(2,4)                             11749.8036635499 	(obj:0)
STE(2,5)                             11990.2498988889 	(obj:0)
STE(2,6)                             13408.0535624388 	(obj:0)
STE(3,7)                             7665.75010111116 	(obj:0)
STE(3,8)                             9324.00000000001 	(obj:0)
STE(3,9)                              9083.5537646611 	(obj:0)
STE(3,10)                            10741.8036635499 	(obj:0)
STE(3,11)                            9324.00000000003 	(obj:0)
STE(3,12)                            10982.2498988889 	(obj:0)
STE(3,13)                              10741.80366355 	(obj:0)
STE(3,14)                            12400.0535624388 	(obj:0)
STE(4,15)                            4999.50020222232 	(obj:0)
STE(4,16)                            6657.75010111113 	(obj:0)
STE(4,17)                            6657.75010111116 	(obj:0)
STE(4,18)                            8316.00000000001 	(obj:0)
STE(4,19)                            6417.30386577226 	(obj:0)
STE(4,20)                            8075.55376466108 	(obj:0)
STE(4,21)                             8075.5537646611 	(obj:0)
STE(4,22)                            9733.80366354992 	(obj:0)
STE(4,23)                            6657.75010111118 	(obj:0)
STE(4,24)                                        8316 	(obj:0)
STE(4,25)                            8316.00000000003 	(obj:0)
STE(4,26)                            9974.24989888884 	(obj:0)
STE(4,27)                            8075.55376466112 	(obj:0)
STE(4,28)                            9733.80366354994 	(obj:0)
STE(4,29)                            9733.80366354997 	(obj:0)
STE(4,30)                            11392.0535624388 	(obj:0)
STE(5,31)                            2333.25030333347 	(obj:0)
STE(5,32)                            3991.50020222231 	(obj:0)
STE(5,33)                            3991.50020222229 	(obj:0)
STE(5,34)                             5649.7501011111 	(obj:0)
STE(5,35)                            3991.50020222231 	(obj:0)
STE(5,36)                            5649.75010111113 	(obj:0)
STE(5,37)                            5649.75010111116 	(obj:0)
STE(5,38)                            7307.99999999998 	(obj:0)
STE(5,39)                            3751.05396688341 	(obj:0)
STE(5,40)                            5409.30386577223 	(obj:0)
STE(5,41)                            5409.30386577223 	(obj:0)
STE(5,42)                            7067.55376466105 	(obj:0)
STE(5,43)                            5409.30386577226 	(obj:0)
STE(5,44)                            7067.55376466107 	(obj:0)
STE(5,45)                            7067.55376466107 	(obj:0)
STE(5,46)                            8725.80366354989 	(obj:0)
STE(5,47)                            3991.50020222234 	(obj:0)
STE(5,48)                            5649.75010111115 	(obj:0)
STE(5,49)                            5649.75010111115 	(obj:0)
STE(5,50)                                        7308 	(obj:0)
STE(5,51)                            5649.75010111118 	(obj:0)
STE(5,52)                                        7308 	(obj:0)
STE(5,53)                                        7308 	(obj:0)
STE(5,54)                            8966.24989888881 	(obj:0)
STE(5,55)                            5409.30386577227 	(obj:0)
STE(5,56)                            7067.55376466109 	(obj:0)
STE(5,57)                            7067.55376466109 	(obj:0)
STE(5,58)                            8725.80366354994 	(obj:0)
STE(5,59)                            7067.55376466112 	(obj:0)
STE(5,60)                            8725.80366354994 	(obj:0)
STE(5,61)                            8725.80366354994 	(obj:0)
STE(5,62)                            10384.0535624388 	(obj:0)
STE(6,63)                            1325.25030333347 	(obj:0)
STE(6,64)                            2641.46438920997 	(obj:0)
STE(6,65)                            2983.50020222231 	(obj:0)
STE(6,66)                            4299.71428809882 	(obj:0)
STE(6,67)                            2983.50020222229 	(obj:0)
STE(6,68)                            4299.71428809879 	(obj:0)
STE(6,69)                             4641.7501011111 	(obj:0)
STE(6,70)                            5957.96418698761 	(obj:0)
STE(6,71)                            2983.50020222231 	(obj:0)
STE(6,72)                            4299.71428809882 	(obj:0)
STE(6,73)                            4641.75010111113 	(obj:0)
STE(6,74)                            5957.96418698764 	(obj:0)
STE(6,75)                            4641.75010111116 	(obj:0)
STE(6,76)                            5957.96418698767 	(obj:0)
STE(6,77)                            6299.99999999998 	(obj:0)
STE(6,78)                            7616.21408587648 	(obj:0)
STE(6,79)                            2743.05396688341 	(obj:0)
STE(6,80)                            4059.26805275992 	(obj:0)
STE(6,81)                            4401.30386577223 	(obj:0)
STE(6,82)                            5717.51795164874 	(obj:0)
STE(6,83)                            4401.30386577223 	(obj:0)
STE(6,84)                            5717.51795164874 	(obj:0)
STE(6,85)                            6059.55376466105 	(obj:0)
STE(6,86)                            7375.76785053755 	(obj:0)
STE(6,87)                            4401.30386577226 	(obj:0)
STE(6,88)                            5717.51795164876 	(obj:0)
STE(6,89)                            6059.55376466107 	(obj:0)
STE(6,90)                            7375.76785053758 	(obj:0)
STE(6,91)                            6059.55376466107 	(obj:0)
STE(6,92)                            7375.76785053758 	(obj:0)
STE(6,93)                            7717.80366354989 	(obj:0)
STE(6,94)                             9034.0177494264 	(obj:0)
STE(6,95)                            2983.50020222234 	(obj:0)
STE(6,96)                            4299.71428809884 	(obj:0)
STE(6,97)                            4641.75010111115 	(obj:0)
STE(6,98)                            5957.96418698766 	(obj:0)
STE(6,99)                            4641.75010111115 	(obj:0)
STE(6,100)                           5957.96418698766 	(obj:0)
STE(6,101)                                       6300 	(obj:0)
STE(6,102)                           7616.21408587651 	(obj:0)
STE(6,103)                           4641.75010111118 	(obj:0)
STE(6,104)                           5957.96418698769 	(obj:0)
STE(6,105)                                       6300 	(obj:0)
STE(6,106)                            7616.2140858765 	(obj:0)
STE(6,107)                                       6300 	(obj:0)
STE(6,108)                            7616.2140858765 	(obj:0)
STE(6,109)                           7958.24989888881 	(obj:0)
STE(6,110)                           9274.46398476532 	(obj:0)
STE(6,111)                           4401.30386577227 	(obj:0)
STE(6,112)                           5717.51795164878 	(obj:0)
STE(6,113)                           6059.55376466109 	(obj:0)
STE(6,114)                            7375.7678505376 	(obj:0)
STE(6,115)                           6059.55376466109 	(obj:0)
STE(6,116)                            7375.7678505376 	(obj:0)
STE(6,117)                           7717.80366354994 	(obj:0)
STE(6,118)                           9034.01774942644 	(obj:0)
STE(6,119)                           6059.55376466112 	(obj:0)
STE(6,120)                           7375.76785053763 	(obj:0)
STE(6,121)                           7717.80366354994 	(obj:0)
STE(6,122)                           9034.01774942644 	(obj:0)
STE(6,123)                           7717.80366354994 	(obj:0)
STE(6,124)                           9034.01774942644 	(obj:0)
STE(6,125)                           9376.05356243875 	(obj:0)
STE(6,126)                           10692.2676483153 	(obj:0)
BG(5)                                723.522421037851 	(obj:10)
AVE(1)                               3259.55177567504 	(obj:0)
WB(2)                                3259.55588804169 	(obj:0)
AVE(2)                               3259.55588804169 	(obj:0)
AVE(3)                               3579.36165209166 	(obj:0)
AVE(4)                               3579.36576445831 	(obj:0)
AVE(5)                               3472.77007794174 	(obj:0)
WB(6)                                 372.95195629129 	(obj:0)
AVE(6)                                3046.3618950668 	(obj:0)
WG(1)                                3259.55177567504 	(obj:10)
WG(3)                                3579.36165209166 	(obj:10)
WG(4)                                3579.36576445831 	(obj:10)
WG(5)                                3472.77007794174 	(obj:10)
WG(6)                                2673.40993877551 	(obj:10)
BG(1)                                936.740723304524 	(obj:10)
BG(2)                                1117.33204758639 	(obj:10)
BG(3)                                616.930846887931 	(obj:10)
BG(4)                                616.926734521282 	(obj:10)
y1(1,1)                              1492.42490899994 	(obj:0)
y1(3,7)                              1492.42490899996 	(obj:0)
y1(3,9)                              1492.42490899996 	(obj:0)
y1(3,11)                             1492.42490899996 	(obj:0)
y1(3,13)                             1492.42490899996 	(obj:0)
y1(4,15)                             1492.42490899996 	(obj:0)
y1(4,17)                             1492.42490899996 	(obj:0)
y1(4,19)                             1492.42490899996 	(obj:0)
y1(4,21)                             1492.42490899996 	(obj:0)
y1(4,23)                             1492.42490899996 	(obj:0)
y1(4,25)                             1492.42490899996 	(obj:0)
y1(4,27)                             1492.42490899996 	(obj:0)
y1(4,29)                             1492.42490899996 	(obj:0)
y1(5,31)                             1492.42490899996 	(obj:0)
y1(5,33)                             1492.42490899996 	(obj:0)
y1(5,35)                             1492.42490899996 	(obj:0)
y1(5,37)                             1492.42490899996 	(obj:0)
y1(5,39)                             1492.42490899996 	(obj:0)
y1(5,41)                             1492.42490899996 	(obj:0)
y1(5,43)                             1492.42490899996 	(obj:0)
y1(5,45)                             1492.42490899996 	(obj:0)
y1(5,47)                             1492.42490899996 	(obj:0)
y1(5,49)                             1492.42490899996 	(obj:0)
y1(5,51)                             1492.42490899996 	(obj:0)
y1(5,53)                             1492.42490899996 	(obj:0)
y1(5,55)                             1492.42490899996 	(obj:0)
y1(5,57)                             1492.42490899996 	(obj:0)
y1(5,59)                             1492.42490899996 	(obj:0)
y1(5,61)                             1492.42490899996 	(obj:0)
y2(2,3)                              1480.26305146192 	(obj:0)
y2(2,4)                              2972.68796046186 	(obj:0)
y2(2,5)                              1480.26305146192 	(obj:0)
y2(2,6)                              2972.68796046186 	(obj:0)
y2(6,64)                             1385.48851144895 	(obj:0)
y2(6,66)                             1385.48851144895 	(obj:0)
y2(6,68)                             1385.48851144895 	(obj:0)
y2(6,70)                             1385.48851144895 	(obj:0)
y2(6,72)                             1385.48851144895 	(obj:0)
y2(6,74)                             1385.48851144895 	(obj:0)
y2(6,76)                             1385.48851144895 	(obj:0)
y2(6,78)                             1385.48851144895 	(obj:0)
y2(6,80)                             1385.48851144895 	(obj:0)
y2(6,82)                             1385.48851144895 	(obj:0)
y2(6,84)                             1385.48851144895 	(obj:0)
y2(6,86)                             1385.48851144895 	(obj:0)
y2(6,88)                             1385.48851144895 	(obj:0)
y2(6,90)                             1385.48851144895 	(obj:0)
y2(6,92)                             1385.48851144895 	(obj:0)
y2(6,94)                             1385.48851144895 	(obj:0)
y2(6,96)                             1385.48851144895 	(obj:0)
y2(6,98)                             1385.48851144895 	(obj:0)
